p cnf 458 1446
a 2 3 4 5 6 7 8 12 17 19 21 22 23 26 28 30 31 33 35 37 38 40 42 44 46 48 50 52 55 56 63 65 69 73 75 77 81 88 93 98 101 103 105 0
e 1 9 10 11 13 14 15 16 18 20 24 25 27 29 32 34 36 39 41 43 45 47 49 51 53 54 57 58 59 60 61 62 64 66 67 68 70 71 72 74 76 78 79 80 82 83 84 85 86 87 89 90 91 92 94 95 96 97 99 100 102 104 106 107 108 109 110 111 112 113 114 115 116 117 118 119 120 121 122 123 124 125 126 127 128 129 130 131 132 133 134 135 136 137 138 139 140 141 142 143 144 145 146 147 148 149 150 151 152 153 154 155 156 157 158 159 160 161 162 163 164 165 166 167 168 169 170 171 172 173 174 175 176 177 178 179 180 181 182 183 184 185 186 187 188 189 190 191 192 193 194 195 196 197 198 199 200 201 202 203 204 205 206 207 208 209 210 211 212 213 214 215 216 217 218 219 220 221 222 223 224 225 226 227 228 229 230 231 232 233 234 235 236 237 238 239 240 241 242 243 244 245 246 247 248 249 250 251 252 253 254 255 256 257 258 259 260 261 262 263 264 265 266 267 268 269 270 271 272 273 274 275 276 277 278 279 280 281 282 283 284 285 286 287 288 289 290 291 292 293 294 295 296 297 298 299 300 301 302 303 304 305 306 307 308 309 310 311 312 313 314 315 316 317 318 319 320 321 322 323 324 325 326 327 328 329 330 331 332 333 334 335 336 337 338 339 340 341 342 343 344 345 346 347 348 349 350 351 352 353 354 355 356 357 358 359 360 361 362 363 364 365 366 367 368 369 370 371 372 373 374 375 376 377 378 379 380 381 382 383 384 385 386 387 388 389 390 391 392 393 394 395 396 397 398 399 400 401 402 403 404 405 406 407 408 409 410 411 412 413 414 415 416 417 418 419 420 421 422 423 424 425 426 427 428 429 430 431 432 433 434 435 436 437 438 439 440 441 442 443 444 445 446 447 448 449 450 451 452 453 454 455 456 457 458 0
1 0
7 -9 0
8 -9 0
-7 -8 9 0
7 -10 0
-8 -10 0
-7 8 10 0
7 11 0
-9 11 0
-10 11 0
-7 9 10 -11 0
-12 13 0
12 13 0
6 -14 0
11 -14 0
13 -14 0
-6 -11 -13 14 0
-6 -15 0
11 -15 0
6 -11 15 0
-14 16 0
-15 16 0
14 15 -16 0
-17 18 0
17 18 0
-19 20 0
19 20 0
22 -24 0
-23 -24 0
-22 23 24 0
22 25 0
-24 25 0
-22 24 -25 0
-26 27 0
26 27 0
27 -29 0
28 -29 0
-27 -28 29 0
-31 32 0
31 32 0
32 -34 0
-33 -34 0
-32 33 34 0
32 -36 0
33 -36 0
35 -36 0
-32 -33 -35 36 0
32 -39 0
33 -39 0
-35 -39 0
37 -39 0
38 -39 0
-32 -33 35 -37 -38 39 0
32 -41 0
33 -41 0
-35 -41 0
37 -41 0
-38 -41 0
-40 -41 0
-32 -33 35 -37 38 40 41 0
32 -43 0
33 -43 0
-35 -43 0
-37 -43 0
-42 -43 0
-32 -33 35 37 42 43 0
32 -45 0
33 -45 0
-35 -45 0
-37 -45 0
42 -45 0
44 -45 0
-32 -33 35 37 -42 -44 45 0
32 -47 0
33 -47 0
-35 -47 0
37 -47 0
-38 -47 0
40 -47 0
46 -47 0
-32 -33 35 -37 38 -40 -46 47 0
32 -49 0
33 -49 0
-35 -49 0
37 -49 0
-38 -49 0
40 -49 0
-46 -49 0
48 -49 0
-32 -33 35 -37 38 -40 46 -48 49 0
-50 51 0
50 51 0
32 -53 0
33 -53 0
-35 -53 0
-37 -53 0
42 -53 0
-44 -53 0
51 -53 0
52 -53 0
-32 -33 35 37 -42 44 -51 -52 53 0
32 -54 0
33 -54 0
-35 -54 0
-37 -54 0
42 -54 0
-44 -54 0
51 -54 0
-52 -54 0
-32 -33 35 37 -42 44 -51 52 54 0
55 -57 0
56 -57 0
-55 -56 57 0
55 -58 0
-56 -58 0
-55 56 58 0
55 59 0
-57 59 0
-58 59 0
-55 57 58 -59 0
32 -60 0
33 -60 0
-35 -60 0
37 -60 0
-38 -60 0
40 -60 0
-46 -60 0
-48 -60 0
59 -60 0
-32 -33 35 -37 38 -40 46 48 -59 60 0
-34 61 0
-36 61 0
-39 61 0
-41 61 0
-43 61 0
-45 61 0
-47 61 0
-49 61 0
-53 61 0
-54 61 0
-60 61 0
34 36 39 41 43 45 47 49 53 54 60 -61 0
27 -62 0
-28 -62 0
-30 -62 0
61 -62 0
-27 28 30 -61 62 0
27 -64 0
-28 -64 0
30 -64 0
-63 -64 0
-27 28 -30 63 64 0
27 -66 0
-28 -66 0
30 -66 0
63 -66 0
-65 -66 0
-27 28 -30 -63 65 66 0
27 -67 0
-28 -67 0
30 -67 0
63 -67 0
65 -67 0
-27 28 -30 -63 -65 67 0
-62 68 0
-64 68 0
-66 68 0
-67 68 0
62 64 66 67 -68 0
68 -70 0
69 -70 0
-68 -69 70 0
68 -71 0
-69 -71 0
-68 69 71 0
-29 72 0
-70 72 0
-71 72 0
29 70 71 -72 0
-73 74 0
73 74 0
21 -76 0
25 -76 0
72 -76 0
74 -76 0
75 -76 0
-21 -25 -72 -74 -75 76 0
-77 78 0
77 78 0
21 -79 0
25 -79 0
72 -79 0
74 -79 0
-75 -79 0
78 -79 0
-21 -25 -72 -74 75 -78 79 0
-76 80 0
-79 80 0
76 79 -80 0
80 -82 0
81 -82 0
-80 -81 82 0
80 -83 0
-81 -83 0
-80 81 83 0
21 84 0
-82 84 0
-83 84 0
-21 82 83 -84 0
5 -85 0
16 -85 0
18 -85 0
20 -85 0
84 -85 0
-5 -16 -18 -20 -84 85 0
-5 -86 0
16 -86 0
18 -86 0
20 -86 0
5 -16 -18 -20 86 0
-85 87 0
-86 87 0
85 86 -87 0
88 89 0
-88 89 0
4 -90 0
87 -90 0
89 -90 0
-4 -87 -89 90 0
-4 -91 0
87 -91 0
4 -87 91 0
-90 92 0
-91 92 0
90 91 -92 0
93 94 0
-93 94 0
3 -95 0
92 -95 0
94 -95 0
-3 -92 -94 95 0
-3 -96 0
92 -96 0
3 -92 96 0
-95 97 0
-96 97 0
95 96 -97 0
98 99 0
-98 99 0
2 -100 0
97 -100 0
99 -100 0
-2 -97 -99 100 0
101 -102 0
97 -102 0
99 -102 0
-101 -97 -99 102 0
103 -104 0
97 -104 0
99 -104 0
-103 -97 -99 104 0
105 -106 0
97 -106 0
99 -106 0
-105 -97 -99 106 0
-105 -107 0
97 -107 0
105 -97 107 0
-106 108 0
-107 108 0
106 107 -108 0
-103 -109 0
108 -109 0
103 -108 109 0
-104 110 0
-109 110 0
104 109 -110 0
-101 -111 0
110 -111 0
101 -110 111 0
-102 112 0
-111 112 0
102 111 -112 0
-2 -113 0
112 -113 0
2 -112 113 0
-100 114 0
-113 114 0
100 113 -114 0
-12 115 0
12 115 0
6 -116 0
115 -116 0
-6 -115 116 0
-116 117 0
6 117 0
116 -6 -117 0
117 -118 0
-21 -118 0
-117 21 118 0
117 -119 0
27 -119 0
28 -119 0
-117 -27 -28 119 0
117 -120 0
27 -120 0
-28 -120 0
30 -120 0
63 -120 0
-65 -120 0
-117 -27 28 -30 -63 65 120 0
117 -121 0
27 -121 0
-28 -121 0
30 -121 0
63 -121 0
65 -121 0
-117 -27 28 -30 -63 -65 121 0
117 -122 0
27 -122 0
-28 -122 0
30 -122 0
-63 -122 0
-117 -27 28 -30 63 122 0
117 -123 0
31 -123 0
-117 -31 123 0
117 -124 0
-31 -124 0
-117 31 124 0
-123 125 0
-124 125 0
123 124 -125 0
-34 126 0
-36 126 0
-39 126 0
-41 126 0
-43 126 0
-45 126 0
-47 126 0
-49 126 0
34 36 39 41 43 45 47 49 -126 0
125 -127 0
126 -127 0
-125 -126 127 0
125 -128 0
32 -128 0
33 -128 0
-35 -128 0
37 -128 0
-38 -128 0
40 -128 0
-46 -128 0
-48 -128 0
59 -128 0
-125 -32 -33 35 -37 38 -40 46 48 -59 128 0
-53 129 0
-54 129 0
53 54 -129 0
125 -130 0
129 -130 0
-125 -129 130 0
-127 131 0
-128 131 0
-130 131 0
127 128 130 -131 0
131 -132 0
27 -132 0
-28 -132 0
-30 -132 0
61 -132 0
-131 -27 28 30 -61 132 0
-120 133 0
-121 133 0
-122 133 0
-132 133 0
120 121 122 132 -133 0
133 -134 0
68 -134 0
69 -134 0
-133 -68 -69 134 0
133 -135 0
68 -135 0
-69 -135 0
-133 -68 69 135 0
-119 136 0
-134 136 0
-135 136 0
119 134 135 -136 0
136 -137 0
21 -137 0
25 -137 0
72 -137 0
74 -137 0
75 -137 0
-136 -21 -25 -72 -74 -75 137 0
136 -138 0
21 -138 0
25 -138 0
72 -138 0
74 -138 0
-75 -138 0
78 -138 0
-136 -21 -25 -72 -74 75 -78 138 0
-137 139 0
-138 139 0
137 138 -139 0
-82 140 0
-83 140 0
82 83 -140 0
139 -141 0
140 -141 0
-139 -140 141 0
-118 142 0
-141 142 0
118 141 -142 0
5 -143 0
142 -143 0
-5 -142 143 0
-5 -144 0
117 -144 0
5 -117 144 0
-143 145 0
-144 145 0
143 144 -145 0
145 -146 0
-88 -146 0
-145 88 146 0
145 -147 0
88 -147 0
-145 -88 147 0
-146 148 0
-147 148 0
146 147 -148 0
4 -149 0
148 -149 0
-4 -148 149 0
-4 -150 0
145 -150 0
4 -145 150 0
-149 151 0
-150 151 0
149 150 -151 0
151 -152 0
-93 -152 0
-151 93 152 0
151 -153 0
93 -153 0
-151 -93 153 0
-152 154 0
-153 154 0
152 153 -154 0
3 -155 0
154 -155 0
-3 -154 155 0
-3 -156 0
151 -156 0
3 -151 156 0
-155 157 0
-156 157 0
155 156 -157 0
157 -158 0
-98 -158 0
-157 98 158 0
157 -159 0
98 -159 0
-157 -98 159 0
-158 160 0
-159 160 0
158 159 -160 0
2 -161 0
160 -161 0
-2 -160 161 0
101 -162 0
160 -162 0
-101 -160 162 0
103 -163 0
160 -163 0
-103 -160 163 0
105 -164 0
160 -164 0
-105 -160 164 0
-105 -165 0
157 -165 0
105 -157 165 0
-164 166 0
-165 166 0
164 165 -166 0
-103 -167 0
166 -167 0
103 -166 167 0
-163 168 0
-167 168 0
163 167 -168 0
-101 -169 0
168 -169 0
101 -168 169 0
-162 170 0
-169 170 0
162 169 -170 0
-2 -171 0
170 -171 0
2 -170 171 0
-161 172 0
-171 172 0
161 171 -172 0
-12 173 0
12 173 0
6 -174 0
173 -174 0
-6 -173 174 0
-174 175 0
6 175 0
174 -6 -175 0
175 -176 0
-21 -176 0
-175 21 176 0
175 -177 0
27 -177 0
28 -177 0
-175 -27 -28 177 0
175 -178 0
27 -178 0
-28 -178 0
30 -178 0
63 -178 0
-65 -178 0
-175 -27 28 -30 -63 65 178 0
175 -179 0
27 -179 0
-28 -179 0
30 -179 0
63 -179 0
65 -179 0
-175 -27 28 -30 -63 -65 179 0
175 -180 0
27 -180 0
-28 -180 0
30 -180 0
-63 -180 0
-175 -27 28 -30 63 180 0
175 -181 0
31 -181 0
-175 -31 181 0
175 -182 0
-31 -182 0
-175 31 182 0
-181 183 0
-182 183 0
181 182 -183 0
-34 184 0
-36 184 0
-39 184 0
-41 184 0
-43 184 0
-45 184 0
-47 184 0
-49 184 0
34 36 39 41 43 45 47 49 -184 0
183 -185 0
184 -185 0
-183 -184 185 0
183 -186 0
32 -186 0
33 -186 0
-35 -186 0
37 -186 0
-38 -186 0
40 -186 0
-46 -186 0
-48 -186 0
59 -186 0
-183 -32 -33 35 -37 38 -40 46 48 -59 186 0
183 -187 0
129 -187 0
-183 -129 187 0
-185 188 0
-186 188 0
-187 188 0
185 186 187 -188 0
188 -189 0
27 -189 0
-28 -189 0
-30 -189 0
61 -189 0
-188 -27 28 30 -61 189 0
-178 190 0
-179 190 0
-180 190 0
-189 190 0
178 179 180 189 -190 0
190 -191 0
68 -191 0
69 -191 0
-190 -68 -69 191 0
190 -192 0
68 -192 0
-69 -192 0
-190 -68 69 192 0
-177 193 0
-191 193 0
-192 193 0
177 191 192 -193 0
193 -194 0
21 -194 0
25 -194 0
72 -194 0
74 -194 0
75 -194 0
-193 -21 -25 -72 -74 -75 194 0
193 -195 0
21 -195 0
25 -195 0
72 -195 0
74 -195 0
-75 -195 0
78 -195 0
-193 -21 -25 -72 -74 75 -78 195 0
-194 196 0
-195 196 0
194 195 -196 0
196 -197 0
140 -197 0
-196 -140 197 0
-176 198 0
-197 198 0
176 197 -198 0
5 -199 0
198 -199 0
-5 -198 199 0
-5 -200 0
175 -200 0
5 -175 200 0
-199 201 0
-200 201 0
199 200 -201 0
201 -202 0
-88 -202 0
-201 88 202 0
201 -203 0
88 -203 0
-201 -88 203 0
-202 204 0
-203 204 0
202 203 -204 0
4 -205 0
204 -205 0
-4 -204 205 0
-4 -206 0
201 -206 0
4 -201 206 0
-205 207 0
-206 207 0
205 206 -207 0
207 -208 0
-93 -208 0
-207 93 208 0
207 -209 0
93 -209 0
-207 -93 209 0
-208 210 0
-209 210 0
208 209 -210 0
3 -211 0
210 -211 0
-3 -210 211 0
-3 -212 0
207 -212 0
3 -207 212 0
-211 213 0
-212 213 0
211 212 -213 0
213 -214 0
-98 -214 0
-213 98 214 0
213 -215 0
98 -215 0
-213 -98 215 0
-214 216 0
-215 216 0
214 215 -216 0
2 -217 0
216 -217 0
-2 -216 217 0
101 -218 0
216 -218 0
-101 -216 218 0
103 -219 0
216 -219 0
-103 -216 219 0
105 -220 0
216 -220 0
-105 -216 220 0
-105 -221 0
213 -221 0
105 -213 221 0
-220 222 0
-221 222 0
220 221 -222 0
-103 -223 0
222 -223 0
103 -222 223 0
-219 224 0
-223 224 0
219 223 -224 0
-101 -225 0
224 -225 0
101 -224 225 0
-218 226 0
-225 226 0
218 225 -226 0
-2 -227 0
226 -227 0
2 -226 227 0
-217 228 0
-227 228 0
217 227 -228 0
234 -236 0
235 -236 0
-234 -235 236 0
234 -237 0
-235 -237 0
-234 235 237 0
234 238 0
-236 238 0
-237 238 0
-234 236 237 -238 0
-239 240 0
239 240 0
233 -241 0
238 -241 0
240 -241 0
-233 -238 -240 241 0
-233 -242 0
238 -242 0
233 -238 242 0
-241 243 0
-242 243 0
241 242 -243 0
-244 245 0
244 245 0
-246 247 0
246 247 0
249 -251 0
-250 -251 0
-249 250 251 0
249 252 0
-251 252 0
-249 251 -252 0
-253 254 0
253 254 0
254 -256 0
255 -256 0
-254 -255 256 0
-258 259 0
258 259 0
259 -261 0
-260 -261 0
-259 260 261 0
259 -263 0
260 -263 0
262 -263 0
-259 -260 -262 263 0
259 -266 0
260 -266 0
-262 -266 0
264 -266 0
265 -266 0
-259 -260 262 -264 -265 266 0
259 -268 0
260 -268 0
-262 -268 0
264 -268 0
-265 -268 0
-267 -268 0
-259 -260 262 -264 265 267 268 0
259 -270 0
260 -270 0
-262 -270 0
-264 -270 0
-269 -270 0
-259 -260 262 264 269 270 0
259 -272 0
260 -272 0
-262 -272 0
-264 -272 0
269 -272 0
271 -272 0
-259 -260 262 264 -269 -271 272 0
259 -274 0
260 -274 0
-262 -274 0
264 -274 0
-265 -274 0
267 -274 0
273 -274 0
-259 -260 262 -264 265 -267 -273 274 0
259 -276 0
260 -276 0
-262 -276 0
264 -276 0
-265 -276 0
267 -276 0
-273 -276 0
275 -276 0
-259 -260 262 -264 265 -267 273 -275 276 0
-277 278 0
277 278 0
259 -280 0
260 -280 0
-262 -280 0
-264 -280 0
269 -280 0
-271 -280 0
278 -280 0
279 -280 0
-259 -260 262 264 -269 271 -278 -279 280 0
259 -281 0
260 -281 0
-262 -281 0
-264 -281 0
269 -281 0
-271 -281 0
278 -281 0
-279 -281 0
-259 -260 262 264 -269 271 -278 279 281 0
282 -284 0
283 -284 0
-282 -283 284 0
282 -285 0
-283 -285 0
-282 283 285 0
282 286 0
-284 286 0
-285 286 0
-282 284 285 -286 0
259 -287 0
260 -287 0
-262 -287 0
264 -287 0
-265 -287 0
267 -287 0
-273 -287 0
-275 -287 0
286 -287 0
-259 -260 262 -264 265 -267 273 275 -286 287 0
-261 288 0
-263 288 0
-266 288 0
-268 288 0
-270 288 0
-272 288 0
-274 288 0
-276 288 0
-280 288 0
-281 288 0
-287 288 0
261 263 266 268 270 272 274 276 280 281 287 -288 0
254 -289 0
-255 -289 0
-257 -289 0
288 -289 0
-254 255 257 -288 289 0
254 -291 0
-255 -291 0
257 -291 0
-290 -291 0
-254 255 -257 290 291 0
254 -293 0
-255 -293 0
257 -293 0
290 -293 0
-292 -293 0
-254 255 -257 -290 292 293 0
254 -294 0
-255 -294 0
257 -294 0
290 -294 0
292 -294 0
-254 255 -257 -290 -292 294 0
-289 295 0
-291 295 0
-293 295 0
-294 295 0
289 291 293 294 -295 0
295 -297 0
296 -297 0
-295 -296 297 0
295 -298 0
-296 -298 0
-295 296 298 0
-256 299 0
-297 299 0
-298 299 0
256 297 298 -299 0
-300 301 0
300 301 0
248 -303 0
252 -303 0
299 -303 0
301 -303 0
302 -303 0
-248 -252 -299 -301 -302 303 0
-304 305 0
304 305 0
248 -306 0
252 -306 0
299 -306 0
301 -306 0
-302 -306 0
305 -306 0
-248 -252 -299 -301 302 -305 306 0
-303 307 0
-306 307 0
303 306 -307 0
307 -309 0
308 -309 0
-307 -308 309 0
307 -310 0
-308 -310 0
-307 308 310 0
248 311 0
-309 311 0
-310 311 0
-248 309 310 -311 0
232 -312 0
243 -312 0
245 -312 0
247 -312 0
311 -312 0
-232 -243 -245 -247 -311 312 0
-232 -313 0
243 -313 0
245 -313 0
247 -313 0
232 -243 -245 -247 313 0
-312 314 0
-313 314 0
312 313 -314 0
315 316 0
-315 316 0
231 -317 0
314 -317 0
316 -317 0
-231 -314 -316 317 0
-231 -318 0
314 -318 0
231 -314 318 0
-317 319 0
-318 319 0
317 318 -319 0
320 321 0
-320 321 0
230 -322 0
319 -322 0
321 -322 0
-230 -319 -321 322 0
-230 -323 0
319 -323 0
230 -319 323 0
-322 324 0
-323 324 0
322 323 -324 0
325 326 0
-325 326 0
229 -327 0
324 -327 0
326 -327 0
-229 -324 -326 327 0
328 -329 0
324 -329 0
326 -329 0
-328 -324 -326 329 0
330 -331 0
324 -331 0
326 -331 0
-330 -324 -326 331 0
332 -333 0
324 -333 0
326 -333 0
-332 -324 -326 333 0
-332 -334 0
324 -334 0
332 -324 334 0
-333 335 0
-334 335 0
333 334 -335 0
-330 -336 0
335 -336 0
330 -335 336 0
-331 337 0
-336 337 0
331 336 -337 0
-328 -338 0
337 -338 0
328 -337 338 0
-329 339 0
-338 339 0
329 338 -339 0
-229 -340 0
339 -340 0
229 -339 340 0
-327 341 0
-340 341 0
327 340 -341 0
-239 342 0
239 342 0
233 -343 0
342 -343 0
-233 -342 343 0
-343 344 0
233 344 0
343 -233 -344 0
344 -345 0
-248 -345 0
-344 248 345 0
344 -346 0
254 -346 0
255 -346 0
-344 -254 -255 346 0
344 -347 0
254 -347 0
-255 -347 0
257 -347 0
290 -347 0
-292 -347 0
-344 -254 255 -257 -290 292 347 0
344 -348 0
254 -348 0
-255 -348 0
257 -348 0
290 -348 0
292 -348 0
-344 -254 255 -257 -290 -292 348 0
344 -349 0
254 -349 0
-255 -349 0
257 -349 0
-290 -349 0
-344 -254 255 -257 290 349 0
344 -350 0
258 -350 0
-344 -258 350 0
344 -351 0
-258 -351 0
-344 258 351 0
-350 352 0
-351 352 0
350 351 -352 0
-261 353 0
-263 353 0
-266 353 0
-268 353 0
-270 353 0
-272 353 0
-274 353 0
-276 353 0
261 263 266 268 270 272 274 276 -353 0
352 -354 0
353 -354 0
-352 -353 354 0
352 -355 0
259 -355 0
260 -355 0
-262 -355 0
264 -355 0
-265 -355 0
267 -355 0
-273 -355 0
-275 -355 0
286 -355 0
-352 -259 -260 262 -264 265 -267 273 275 -286 355 0
-280 356 0
-281 356 0
280 281 -356 0
352 -357 0
356 -357 0
-352 -356 357 0
-354 358 0
-355 358 0
-357 358 0
354 355 357 -358 0
358 -359 0
254 -359 0
-255 -359 0
-257 -359 0
288 -359 0
-358 -254 255 257 -288 359 0
-347 360 0
-348 360 0
-349 360 0
-359 360 0
347 348 349 359 -360 0
360 -361 0
295 -361 0
296 -361 0
-360 -295 -296 361 0
360 -362 0
295 -362 0
-296 -362 0
-360 -295 296 362 0
-346 363 0
-361 363 0
-362 363 0
346 361 362 -363 0
363 -364 0
248 -364 0
252 -364 0
299 -364 0
301 -364 0
302 -364 0
-363 -248 -252 -299 -301 -302 364 0
363 -365 0
248 -365 0
252 -365 0
299 -365 0
301 -365 0
-302 -365 0
305 -365 0
-363 -248 -252 -299 -301 302 -305 365 0
-364 366 0
-365 366 0
364 365 -366 0
-309 367 0
-310 367 0
309 310 -367 0
366 -368 0
367 -368 0
-366 -367 368 0
-345 369 0
-368 369 0
345 368 -369 0
232 -370 0
369 -370 0
-232 -369 370 0
-232 -371 0
344 -371 0
232 -344 371 0
-370 372 0
-371 372 0
370 371 -372 0
372 -373 0
-315 -373 0
-372 315 373 0
372 -374 0
315 -374 0
-372 -315 374 0
-373 375 0
-374 375 0
373 374 -375 0
231 -376 0
375 -376 0
-231 -375 376 0
-231 -377 0
372 -377 0
231 -372 377 0
-376 378 0
-377 378 0
376 377 -378 0
378 -379 0
-320 -379 0
-378 320 379 0
378 -380 0
320 -380 0
-378 -320 380 0
-379 381 0
-380 381 0
379 380 -381 0
230 -382 0
381 -382 0
-230 -381 382 0
-230 -383 0
378 -383 0
230 -378 383 0
-382 384 0
-383 384 0
382 383 -384 0
384 -385 0
-325 -385 0
-384 325 385 0
384 -386 0
325 -386 0
-384 -325 386 0
-385 387 0
-386 387 0
385 386 -387 0
229 -388 0
387 -388 0
-229 -387 388 0
328 -389 0
387 -389 0
-328 -387 389 0
330 -390 0
387 -390 0
-330 -387 390 0
332 -391 0
387 -391 0
-332 -387 391 0
-332 -392 0
384 -392 0
332 -384 392 0
-391 393 0
-392 393 0
391 392 -393 0
-330 -394 0
393 -394 0
330 -393 394 0
-390 395 0
-394 395 0
390 394 -395 0
-328 -396 0
395 -396 0
328 -395 396 0
-389 397 0
-396 397 0
389 396 -397 0
-229 -398 0
397 -398 0
229 -397 398 0
-388 399 0
-398 399 0
388 398 -399 0
-239 400 0
239 400 0
233 -401 0
400 -401 0
-233 -400 401 0
-401 402 0
233 402 0
401 -233 -402 0
402 -403 0
-248 -403 0
-402 248 403 0
402 -404 0
254 -404 0
255 -404 0
-402 -254 -255 404 0
402 -405 0
254 -405 0
-255 -405 0
257 -405 0
290 -405 0
-292 -405 0
-402 -254 255 -257 -290 292 405 0
402 -406 0
254 -406 0
-255 -406 0
257 -406 0
290 -406 0
292 -406 0
-402 -254 255 -257 -290 -292 406 0
402 -407 0
254 -407 0
-255 -407 0
257 -407 0
-290 -407 0
-402 -254 255 -257 290 407 0
402 -408 0
258 -408 0
-402 -258 408 0
402 -409 0
-258 -409 0
-402 258 409 0
-408 410 0
-409 410 0
408 409 -410 0
-261 411 0
-263 411 0
-266 411 0
-268 411 0
-270 411 0
-272 411 0
-274 411 0
-276 411 0
261 263 266 268 270 272 274 276 -411 0
410 -412 0
411 -412 0
-410 -411 412 0
410 -413 0
259 -413 0
260 -413 0
-262 -413 0
264 -413 0
-265 -413 0
267 -413 0
-273 -413 0
-275 -413 0
286 -413 0
-410 -259 -260 262 -264 265 -267 273 275 -286 413 0
410 -414 0
356 -414 0
-410 -356 414 0
-412 415 0
-413 415 0
-414 415 0
412 413 414 -415 0
415 -416 0
254 -416 0
-255 -416 0
-257 -416 0
288 -416 0
-415 -254 255 257 -288 416 0
-405 417 0
-406 417 0
-407 417 0
-416 417 0
405 406 407 416 -417 0
417 -418 0
295 -418 0
296 -418 0
-417 -295 -296 418 0
417 -419 0
295 -419 0
-296 -419 0
-417 -295 296 419 0
-404 420 0
-418 420 0
-419 420 0
404 418 419 -420 0
420 -421 0
248 -421 0
252 -421 0
299 -421 0
301 -421 0
302 -421 0
-420 -248 -252 -299 -301 -302 421 0
420 -422 0
248 -422 0
252 -422 0
299 -422 0
301 -422 0
-302 -422 0
305 -422 0
-420 -248 -252 -299 -301 302 -305 422 0
-421 423 0
-422 423 0
421 422 -423 0
423 -424 0
367 -424 0
-423 -367 424 0
-403 425 0
-424 425 0
403 424 -425 0
232 -426 0
425 -426 0
-232 -425 426 0
-232 -427 0
402 -427 0
232 -402 427 0
-426 428 0
-427 428 0
426 427 -428 0
428 -429 0
-315 -429 0
-428 315 429 0
428 -430 0
315 -430 0
-428 -315 430 0
-429 431 0
-430 431 0
429 430 -431 0
231 -432 0
431 -432 0
-231 -431 432 0
-231 -433 0
428 -433 0
231 -428 433 0
-432 434 0
-433 434 0
432 433 -434 0
434 -435 0
-320 -435 0
-434 320 435 0
434 -436 0
320 -436 0
-434 -320 436 0
-435 437 0
-436 437 0
435 436 -437 0
230 -438 0
437 -438 0
-230 -437 438 0
-230 -439 0
434 -439 0
230 -434 439 0
-438 440 0
-439 440 0
438 439 -440 0
440 -441 0
-325 -441 0
-440 325 441 0
440 -442 0
325 -442 0
-440 -325 442 0
-441 443 0
-442 443 0
441 442 -443 0
229 -444 0
443 -444 0
-229 -443 444 0
328 -445 0
443 -445 0
-328 -443 445 0
330 -446 0
443 -446 0
-330 -443 446 0
332 -447 0
443 -447 0
-332 -443 447 0
-332 -448 0
440 -448 0
332 -440 448 0
-447 449 0
-448 449 0
447 448 -449 0
-330 -450 0
449 -450 0
330 -449 450 0
-446 451 0
-450 451 0
446 450 -451 0
-328 -452 0
451 -452 0
328 -451 452 0
-445 453 0
-452 453 0
445 452 -453 0
-229 -454 0
453 -454 0
229 -453 454 0
-444 455 0
-454 455 0
444 454 -455 0
-399 -172 -456 0
399 172 -456 0
-399 172 456 0
399 -172 456 0
-455 -228 -457 0
455 228 -457 0
-455 228 457 0
455 -228 457 0
-456 -458 0
-457 -458 0
341 -458 0
456 457 -341 458 0
-114 458 0
